c User generated cnf file
p cnf 13 30
-9 7 2 0 
12 10 -1 0 
-6 11 4 0 
-3 1 9 0 
13 -2 3 0 
4 9 -13 0 
4 6 -10 0 
12 3 -10 0 
12 1 -6 0 
7 1 -6 0 
-2 10 4 0 
12 -1 5 0 
-12 3 7 0 
-7 13 13 0 
-7 4 7 0 
5 -7 3 0 
5 -10 4 0 
10 -12 12 0 
3 -10 7 0 
10 6 -6 0 
3 9 -3 0 
-12 2 6 0 
-12 5 11 0 
13 -2 9 0 
4 -8 5 0 
12 -11 12 0 
10 -11 9 0 
-3 5 12 0 
11 -6 6 0 
5 8 -12 0 
